7
    0   22   40   15   35   20   30
   22    0    7   10   15   35    8
   40    7    0   19   14   22    5
   15   10   19    0   12   10    9
   35   15   14   12    0    8    7
   20   35   22   10    8    0   10
   30    8    5    9    7   10    0
